32      4       
10      10      10      10      
0       0       0       0       0       4       2       3       4       5       
6       0       6       0       0       1       6       
3       0       2       0       0       1       9       
8       8       0       0       0       1       31      
6       0       0       1       0       1       8       
6       2       0       0       0       1       7       
3       8       0       0       0       1       10      
10      0       0       0       3       1       11      
6       0       3       0       0       1       19      
2       0       0       0       1       1       14      
6       0       9       0       0       1       12      
4       0       0       10      0       1       13      
3       0       5       0       0       1       14      
4       10      0       0       0       1       15      
10      0       0       0       3       1       16      
4       0       4       0       0       1       17      
10      0       9       0       0       2       18      19      
1       0       0       0       10      1       25      
10      0       0       7       0       1       20      
4       0       0       5       0       2       21      31      
3       0       0       0       4       1       22      
10      9       0       0       0       1       23      
3       2       0       0       0       1       24      
1       0       0       0       6       1       26      
5       0       0       4       0       1       26      
2       0       0       1       0       1       27      
3       0       0       0       3       1       28      
7       0       7       0       0       1       29      
4       0       10      0       0       1       30      
1       3       0       0       0       1       32      
7       0       0       0       7       1       32      
0       0       0       0       0       0       
